p cnf 278 401
e 1 2 3 4 5 6 7 8 9 10 11 12 13 15 16 17 18 19 20 21 22 23 24 25 26 27 28 29 30 31 32 33 34 35 36 37 38 39 40 42 43 44 45 46 47 48 49 50 52 53 54 55 57 58 59 60 61 62 0
a 14 41 51 56 0
e 63 64 65 66 67 68 69 70 71 72 73 74 75 76 77 78 79 80 81 82 83 84 85 86 87 88 89 90 91 92 93 94 95 96 97 98 99 100 101 102 103 104 105 106 107 108 109 110 111 112 113 114 115 116 117 118 119 120 121 122 123 124 125 126 127 128 129 130 131 132 133 134 135 136 137 138 139 140 141 142 143 144 145 146 147 148 149 150 151 152 153 154 155 156 157 158 159 160 161 162 163 164 165 166 167 168 169 170 171 172 173 174 175 176 177 178 179 180 181 182 183 184 185 186 187 188 189 190 191 192 193 194 195 196 197 198 199 200 201 202 203 204 205 206 207 208 209 210 211 212 213 214 215 216 217 218 219 220 221 222 223 224 225 226 227 228 229 230 231 232 233 234 235 236 237 238 239 240 241 242 243 244 245 246 247 248 249 250 251 252 253 254 255 256 257 258 259 260 261 262 263 264 265 266 267 268 269 270 271 272 273 274 275 276 277 278 0
-278 0
-277 -271 -258 -235 278 0
277 -216 0
277 -234 0
277 -257 0
277 -270 0
277 -276 0
277 -37 0
277 -36 0
277 -35 0
-82 -81 -80 -79 -275 276 0
275 -272 0
275 -273 0
275 -274 0
28 32 31 30 29 27 26 -133 -132 -87 -86 274 0
23 22 21 20 19 18 17 -136 -135 -92 -91 273 0
13 9 7 8 12 11 10 -139 -138 -97 -96 272 0
271 -215 0
271 -249 0
271 -263 0
271 -216 0
271 -270 0
271 -62 0
271 -37 0
271 -36 0
-269 -266 270 0
269 -206 0
269 -207 0
269 -208 0
269 -267 0
269 -268 0
-82 -81 -80 -79 -204 -99 268 0
-82 -81 -80 -79 -245 -104 267 0
266 -222 0
266 -223 0
266 -224 0
266 -264 0
266 -265 0
-82 -81 -80 -79 -119 -220 265 0
-82 -81 -80 -79 -147 -250 264 0
-82 -81 -80 -79 -262 263 0
262 -259 0
262 -260 0
262 -261 0
13 7 12 39 55 48 59 -127 -126 -117 -116 261 0
23 22 17 49 43 60 57 -124 -123 -114 -113 260 0
32 31 26 61 50 46 58 -121 -120 -111 -110 259 0
258 -196 0
258 -240 0
258 -249 0
258 -216 0
258 -257 0
258 -62 0
258 -36 0
258 -35 0
-256 -253 257 0
256 -100 0
256 -109 0
256 -130 0
256 -254 0
256 -255 0
-82 -81 -80 -79 -129 -154 255 0
-82 -81 -80 -79 -104 -241 254 0
253 -251 0
253 -252 0
253 -217 0
253 -218 0
253 -219 0
-82 -81 -80 -79 -190 -225 252 0
-82 -81 -80 -79 -174 -250 251 0
250 -227 0
250 -228 0
250 -229 0
-248 -244 249 0
248 -246 0
248 -247 0
248 -201 0
248 -202 0
248 -203 0
-82 -81 -80 -79 -181 -209 247 0
-82 -81 -80 -79 -174 -245 246 0
245 -211 0
245 -212 0
245 -213 0
244 -242 0
244 -243 0
244 -143 0
244 -148 0
244 -153 0
-82 -81 -80 -79 -152 -131 243 0
-82 -81 -80 -79 -147 -241 242 0
241 -160 0
241 -161 0
241 -162 0
-82 -81 -80 -79 -239 240 0
239 -236 0
239 -237 0
239 -238 0
13 7 12 11 10 39 48 -95 -172 -94 -171 238 0
23 22 21 20 17 49 43 -90 -169 -89 -168 237 0
32 31 30 29 26 50 46 -85 -166 -84 -165 236 0
235 -83 0
235 -196 0
235 -215 0
235 -216 0
235 -234 0
235 -62 0
235 -37 0
235 -35 0
-233 -230 234 0
233 -164 0
233 -231 0
233 -175 0
233 -176 0
233 -232 0
-82 -81 -80 -79 -129 -186 232 0
-82 -81 -80 -79 -99 -197 231 0
230 -221 0
230 -226 0
230 -227 0
230 -228 0
230 -229 0
-82 -81 -80 -79 -158 -152 229 0
-82 -81 -80 -79 -181 -108 228 0
-82 -81 -80 -79 -141 227 0
-82 -81 -80 -79 -158 -225 226 0
225 -222 0
225 -223 0
225 -224 0
-82 -81 -80 -79 -141 -147 224 0
-82 -81 -80 -79 -181 -119 223 0
-82 -81 -80 -79 -152 222 0
-82 -81 -80 -79 -108 -220 221 0
220 -217 0
220 -218 0
220 -219 0
-82 -81 -80 -79 -174 -141 219 0
-82 -81 -80 -79 -190 -152 218 0
-82 -81 -80 -79 -181 217 0
35 37 36 62 216 0
-214 -200 215 0
214 -205 0
214 -210 0
214 -211 0
214 -212 0
214 -213 0
-82 -81 -80 -79 -190 -108 213 0
-82 -81 -80 -79 -129 -141 212 0
-82 -81 -80 -79 -158 211 0
-82 -81 -80 -79 -141 -209 210 0
209 -206 0
209 -207 0
209 -208 0
-82 -81 -80 -79 -158 -104 208 0
-82 -81 -80 -79 -190 -99 207 0
-82 -81 -80 -79 -129 206 0
-82 -81 -80 -79 -204 -108 205 0
204 -201 0
204 -202 0
204 -203 0
-82 -81 -80 -79 -174 -158 203 0
-82 -81 -80 -79 -129 -181 202 0
-82 -81 -80 -79 -190 201 0
200 -198 0
200 -199 0
200 -183 0
200 -184 0
200 -185 0
-82 -81 -80 -79 -152 -177 199 0
-82 -81 -80 -79 -119 -197 198 0
197 -192 0
197 -193 0
197 -194 0
-195 -163 196 0
195 -182 0
195 -191 0
195 -192 0
195 -193 0
195 -194 0
-82 -81 -80 -79 -190 -147 194 0
-82 -81 -80 -79 -181 -104 193 0
-82 -81 -80 -79 -174 192 0
-82 -81 -80 -79 -190 -186 191 0
190 -187 0
190 -188 0
190 -189 0
13 12 10 39 38 55 48 -127 -126 -172 -171 189 0
23 22 20 49 43 57 42 -124 -123 -169 -168 188 0
32 31 29 50 46 45 58 -121 -120 -166 -165 187 0
186 -183 0
186 -184 0
186 -185 0
-82 -81 -80 -79 -104 -152 185 0
-82 -81 -80 -79 -174 -119 184 0
-82 -81 -80 -79 -147 183 0
-82 -81 -80 -79 -181 -177 182 0
181 -178 0
181 -179 0
181 -180 0
9 12 11 10 38 52 48 -139 -138 -172 -171 180 0
22 21 20 19 53 49 42 -136 -135 -169 -168 179 0
28 31 30 29 54 50 45 -133 -132 -166 -165 178 0
177 -164 0
177 -175 0
177 -176 0
-82 -81 -80 -79 -129 -147 176 0
-82 -81 -80 -79 -174 -99 175 0
174 -167 0
174 -170 0
174 -173 0
13 11 10 39 38 48 40 -172 -171 -74 -73 173 0
172 41 0
172 5 0
171 -41 0
171 1 0
23 21 20 49 43 44 42 -169 -168 -69 -68 170 0
169 41 0
169 4 0
168 -41 0
168 2 0
32 30 29 50 46 45 47 -166 -165 -64 -63 167 0
166 41 0
166 6 0
165 -41 0
165 3 0
-82 -81 -80 -79 -104 164 0
163 -142 0
163 -159 0
163 -160 0
163 -161 0
163 -162 0
-82 -81 -80 -79 -158 -119 162 0
-82 -81 -80 -79 -99 -141 161 0
-82 -81 -80 -79 -108 160 0
-82 -81 -80 -79 -158 -154 159 0
158 -155 0
158 -156 0
158 -157 0
13 10 39 38 55 48 40 -76 -75 -127 -126 157 0
23 20 49 43 57 44 42 -71 -70 -124 -123 156 0
32 29 50 46 45 58 47 -66 -65 -121 -120 155 0
154 -143 0
154 -148 0
154 -153 0
-82 -81 -80 -79 -99 -152 153 0
152 -149 0
152 -150 0
152 -151 0
13 9 12 11 38 48 59 -139 -138 -117 -116 151 0
23 22 21 19 49 60 42 -136 -135 -114 -113 150 0
28 32 31 30 61 50 45 -133 -132 -111 -110 149 0
-82 -81 -80 -79 -108 -147 148 0
147 -144 0
147 -145 0
147 -146 0
12 11 39 38 52 48 59 -117 -116 -74 -73 146 0
22 21 53 49 43 60 42 -114 -113 -69 -68 145 0
31 30 54 61 50 46 45 -111 -110 -64 -63 144 0
-82 -81 -80 -79 -119 143 0
-82 -81 -80 -79 -141 -131 142 0
141 -134 0
141 -137 0
141 -140 0
13 9 12 11 10 38 48 -76 -75 -139 -138 140 0
139 14 0
139 16 0
138 15 0
138 -14 0
23 22 21 20 19 49 42 -71 -70 -136 -135 137 0
136 14 0
136 25 0
135 24 0
135 -14 0
28 32 31 30 29 50 45 -66 -65 -133 -132 134 0
133 34 0
133 14 0
132 33 0
132 -14 0
131 -100 0
131 -109 0
131 -130 0
-82 -81 -80 -79 -129 -119 130 0
129 -122 0
129 -125 0
129 -128 0
13 8 12 10 39 38 55 -127 -126 -97 -96 128 0
127 56 0
127 16 0
126 -56 0
126 15 0
23 22 20 18 43 57 42 -124 -123 -92 -91 125 0
124 56 0
124 25 0
123 -56 0
123 24 0
32 31 29 27 46 45 58 -121 -120 -87 -86 122 0
121 -56 0
121 33 0
120 56 0
120 34 0
119 -112 0
119 -115 0
119 -118 0
13 12 11 39 38 48 59 -117 -116 -95 -94 118 0
117 56 0
117 5 0
116 -56 0
116 1 0
23 22 21 49 43 60 42 -114 -113 -90 -89 115 0
114 56 0
114 4 0
113 -56 0
113 2 0
32 31 30 61 50 46 45 -111 -110 -85 -84 112 0
111 56 0
111 6 0
110 -56 0
110 3 0
-82 -81 -80 -79 -108 -104 109 0
108 -105 0
108 -106 0
108 -107 0
12 11 10 39 38 52 48 -76 -75 -95 -94 107 0
22 21 20 53 49 43 42 -71 -70 -90 -89 106 0
31 30 29 54 50 46 45 -66 -65 -85 -84 105 0
104 -101 0
104 -102 0
104 -103 0
13 8 12 11 10 39 38 -97 -96 -74 -73 103 0
23 22 21 20 18 43 42 -92 -91 -69 -68 102 0
32 31 30 29 27 46 45 -87 -86 -64 -63 101 0
-82 -81 -80 -79 -99 100 0
99 -88 0
99 -93 0
99 -98 0
13 8 11 10 39 38 40 -97 -96 -95 -94 98 0
97 14 0
97 5 0
96 1 0
96 -14 0
95 41 0
95 16 0
94 -41 0
94 15 0
23 21 20 18 43 44 42 -92 -91 -90 -89 93 0
92 14 0
92 4 0
91 2 0
91 -14 0
90 41 0
90 25 0
89 -41 0
89 24 0
32 30 29 27 46 45 47 -87 -86 -85 -84 88 0
87 14 0
87 6 0
86 3 0
86 -14 0
85 41 0
85 34 0
84 -41 0
84 33 0
-82 -81 -80 -79 -78 83 0
82 5 0
82 -4 0
81 4 0
81 -6 0
80 3 0
80 -2 0
79 2 0
79 -1 0
78 -67 0
78 -72 0
78 -77 0
13 7 12 11 10 39 48 -76 -75 -74 -73 77 0
76 51 0
76 5 0
75 -51 0
75 1 0
74 51 0
74 16 0
73 -51 0
73 15 0
23 22 21 20 17 49 43 -71 -70 -69 -68 72 0
71 51 0
71 4 0
70 -51 0
70 2 0
69 51 0
69 25 0
68 -51 0
68 24 0
32 31 30 29 26 50 46 -66 -65 -64 -63 67 0
66 51 0
66 6 0
65 -51 0
65 3 0
64 51 0
64 34 0
63 -51 0
63 33 0
